1656
62 5 25 2 20 73 23 97 65 68 77 15 63 90 26 79 91 53 33 76 11 16 14 35 38 87 7 69 30 49 8 3 92 12 54 74 27 78 4 44 45 82 95 29 80 84 42 40 47 55 61 1 9 96 72 50 66 10 17 43 86 58 99 48 88 60 85 22 18 51 57 67 31 64 36 46 13 70 98 32 93 28 94 75 71 89 59 41 6 21 52 56 34 37 24 81 19 83 39 
